# Solution for model r3_t9_m5_4
# Finished Task: 8 / 9
# Makespan: 670.0, Total Distance: 333.0, Total Time: 0.8872
# R O S F
0 0 4 34.0 34.0
1 1 5 0.0 0.0
2 2 11 0.0 0.0
3 0 7 497.0 529.0
4 0 6 300.0 331.0
5 1 9 323.0 359.0
6 0 3 381.0 403.0
7 0 10 587.0 612.0
8 -1 -1 670.0 704.0
9 1 -1 458.0 497.0
10 0 -1 645.0 670.0
11 2 -1 529.0 560.0
